(set-logic HORN)
(set-info :source |
    Benchmark: C_VC
    Output by Princess (http://www.philipp.ruemmer.org/princess.shtml)
|)
(set-info :status sat)
;===============================================================================
; Encoding of Heap sorts and operations
;-------------------------------------------------------------------------------
(define-sort Addr() Int)
(declare-datatypes ((HeapObject 0) (node 0))
                   (((O_Int (getInt Int)) (O_Addr (getAddr Addr)) (O_node (getnode node)) (defObj))
                   ((node (next Addr) (data Int)))))
(declare-datatypes ((AllocResHeap 0) (Heap 0))
                   (((AllocResHeap   (newHeap Heap) (newAddr Addr)))
                    ((HeapCtor (HeapSize Int)
                               (HeapContents (Array Addr HeapObject))))))
(define-fun nullAddr  () Addr 0)
(define-fun defHeapObject    () HeapObject defObj)
(define-fun valid     ((h Heap) (p Addr)) Bool
  (and (>= (HeapSize h) p) (> p 0)))
(define-fun emptyHeap () Heap (
  HeapCtor 0 (( as const (Array Addr HeapObject)) defHeapObject)))
(define-fun read ((h Heap) (p Addr)) HeapObject
  (ite (valid h p)
       (select (HeapContents h) p)
       defHeapObject))
(define-fun write ((h Heap) (p Addr) (o HeapObject)) Heap
  (ite (valid h p)
       (HeapCtor (HeapSize h) (store (HeapContents h) p o))
       h))
(define-fun alloc   ((h Heap) (o HeapObject)) AllocResHeap
  (AllocResHeap (HeapCtor (+ 1 (HeapSize h))
                    (store (HeapContents h) (+ 1 (HeapSize h)) o))
          (+ 1 (HeapSize h))))

;===============================================================================
(declare-fun inv_main12 (Heap Int Int Int Int Int Addr) Bool)
(declare-fun inv_main15 (Heap Int Int Int Int Int Addr Int) Bool)
(declare-fun inv_main18 (Heap Int Int Int Int Int Addr) Bool)
(declare-fun inv_main21 (Heap Int Int Int Int Addr Addr) Bool)
(declare-fun inv_main22 (Heap Int Int Int Int Addr Addr) Bool)
(declare-fun inv_main28 (Heap Int Int Int Int Addr Addr Int Addr) Bool)
(declare-fun inv_main31 (Heap Int Int Int Int Addr Addr Int Addr Int) Bool)
(declare-fun inv_main34 (Heap Int Int Int Int Addr Addr Int Addr) Bool)
(declare-fun inv_main36 (Heap Int Int Int Int Addr Addr Addr) Bool)
(declare-fun inv_main4 (Heap Int Int) Bool)
(declare-fun inv_main49 (Heap Int Int Addr Int Int Int Addr) Bool)
(declare-fun inv_main52 (Heap Int Int Addr Int Int Int Addr Int) Bool)
(declare-fun inv_main55 (Heap Int Int Addr Int Int Int Addr) Bool)
(declare-fun inv_main60 (Heap Int Int Addr Int Int Addr) Bool)
(declare-fun inv_main61 (Heap Int Int Addr Int Int Addr Addr) Bool)
(declare-fun inv_main62 (Heap Int Int Addr Int Int Addr Addr) Bool)
(declare-fun inv_main63 (Heap Int Int Addr Int Int Addr Addr) Bool)
(declare-fun inv_main67 (Heap Int Int Addr Int Int Addr Addr) Bool)
(declare-fun inv_main69 (Heap Int Int Addr Addr Int) Bool)
(declare-fun inv_main72 (Heap Int Int Addr Addr Int) Bool)
(declare-fun inv_main84 (Heap Int Int Addr Addr Int Addr) Bool)
(declare-fun inv_main88 (Heap Int Int Addr Addr Int Addr Addr) Bool)
(declare-fun inv_main91 (Heap Int Int Addr Addr Int) Bool)
(assert (forall ((var0 Heap)) (or (not (= var0 emptyHeap)) (inv_main4 var0 2 1))))
(assert (forall ((var0 Int) (var1 Int) (var2 Heap) (var3 Int) (var4 Int) (var5 Int) (var6 Int) (var7 Heap) (var8 Int) (var9 Addr) (var10 node)) (or (not (and (inv_main4 var7 var3 var1) (and (not (= nullAddr var9)) (and (and (and (and (and (and (= var2 (newHeap (alloc var7 (O_node var10)))) (= var6 var3)) (= var5 var1)) (= var8 var3)) (= var4 var1)) (= var0 var1)) (= var9 (newAddr (alloc var7 (O_node var10)))))))) (inv_main12 var2 var6 var5 var8 var4 var0 var9))))
(assert (forall ((var0 Int) (var1 Addr) (var2 Int) (var3 Int) (var4 Addr) (var5 Addr) (var6 Int) (var7 Int) (var8 Heap) (var9 Int) (var10 Heap) (var11 Int) (var12 Addr) (var13 Int) (var14 Int) (var15 Addr) (var16 Int) (var17 Addr)) (or (not (and (inv_main34 var10 var9 var0 var16 var11 var17 var5 var3 var15) (and (and (and (and (and (and (and (and (= var8 (write var10 var15 (O_node (node (next (getnode (read var10 var15))) var3)))) (= var2 var9)) (= var6 var0)) (= var7 var16)) (= var13 var11)) (= var4 var17)) (= var12 var5)) (= var14 var3)) (= var1 var15)))) (inv_main36 var8 var2 var6 var7 var13 var4 var12 var1))))
(assert (forall ((var0 Int) (var1 Int) (var2 Int) (var3 Int) (var4 Addr) (var5 Addr) (var6 Addr) (var7 Int) (var8 Int) (var9 Addr) (var10 Heap) (var11 Int) (var12 Addr) (var13 Addr) (var14 Addr) (var15 Heap) (var16 Int)) (or (not (and (inv_main63 var15 var11 var0 var13 var8 var7 var14 var4) (and (and (and (and (and (and (and (and (= var10 var15) (= var1 var11)) (= var16 var0)) (= var5 var13)) (= var2 var8)) (= var3 var7)) (= var12 var14)) (= var6 var4)) (= var9 (next (getnode (read var15 var4))))))) (inv_main61 var10 var1 var16 var5 var2 var3 var12 var9))))
(assert (forall ((var0 Int) (var1 Int) (var2 Int) (var3 Int) (var4 Addr) (var5 Addr) (var6 Heap) (var7 Int) (var8 Int) (var9 Int) (var10 Int) (var11 Addr) (var12 Addr) (var13 Heap) (var14 Int) (var15 Int)) (or (not (and (inv_main55 var13 var9 var1 var11 var8 var7 var3 var4) (and (not (= nullAddr var12)) (and (and (and (and (and (and (and (= var6 (write var13 var4 (O_node (node (next (getnode (read var13 var4))) var3)))) (= var0 var9)) (= var2 var1)) (= var12 var11)) (= var14 var8)) (= var15 var7)) (= var10 var3)) (= var5 var4))))) (inv_main61 var6 var0 var2 var12 var14 var15 var5 var12))))
(assert (forall ((var0 Int) (var1 Int) (var2 Heap) (var3 Int) (var4 Addr) (var5 Int) (var6 Addr)) (or (not (and (inv_main21 var2 var1 var0 var5 var3 var6 var4) (not (<= 0 (+ (+ var5 (- 1)) (- 1)))))) (inv_main22 var2 var1 var0 var5 var3 var6 var4))))
(assert (forall ((var0 Int) (var1 Int) (var2 Heap) (var3 Int) (var4 Addr) (var5 Int) (var6 Int)) (or (not (inv_main12 var2 var1 var0 var5 var3 var6 var4)) (inv_main18 (write var2 var4 (O_node (node nullAddr (data (getnode (read var2 var4)))))) var1 var0 var5 var3 var6 var4))))
(assert (forall ((var0 Int) (var1 Int) (var2 Int) (var3 Heap) (var4 Int) (var5 Int) (var6 Addr) (var7 Addr) (var8 Int) (var9 Addr)) (or (not (inv_main31 var3 var2 var0 var8 var4 var9 var6 var5 var7 var1)) (inv_main31 var3 var2 var0 var8 var4 var9 var6 var5 var7 var1))))
(assert (forall ((var0 Int) (var1 Addr) (var2 Addr) (var3 Int) (var4 Int) (var5 Int) (var6 node) (var7 Heap) (var8 Addr) (var9 Int) (var10 Int) (var11 Int) (var12 Heap) (var13 Int) (var14 Addr) (var15 Int) (var16 Addr)) (or (not (and (inv_main21 var12 var10 var0 var15 var13 var16 var8) (and (and (= nullAddr var14) (and (and (and (and (and (and (and (and (= var7 (newHeap (alloc var12 (O_node var6)))) (= var4 var10)) (= var9 var0)) (= var3 var15)) (= var11 var13)) (= var2 var16)) (= var1 var8)) (= var5 var13)) (= var14 (newAddr (alloc var12 (O_node var6)))))) (<= 0 (+ (+ var15 (- 1)) (- 1)))))) (inv_main31 var7 var4 var9 var3 var11 var2 var1 var5 var14 1))))
(assert (forall ((var0 Int) (var1 Int) (var2 Addr) (var3 Addr) (var4 Heap) (var5 Int)) (or (not (and (inv_main69 var4 var1 var0 var2 var3 var5) (= var0 (data (getnode (read var4 var3)))))) (inv_main72 var4 var1 var0 var2 var3 var5))))
(assert (forall ((var0 Int) (var1 Int) (var2 Addr) (var3 Int) (var4 Addr) (var5 Addr) (var6 Addr) (var7 Int) (var8 Int) (var9 Int) (var10 Heap) (var11 Int) (var12 Addr) (var13 Addr) (var14 Heap) (var15 Int)) (or (not (and (inv_main62 var14 var11 var0 var12 var9 var8 var13 var5) (and (and (and (and (and (and (and (= var10 (write var14 var13 (O_node (node var12 (data (getnode (read var14 var13))))))) (= var3 var11)) (= var1 var0)) (= var6 var12)) (= var15 var9)) (= var7 var8)) (= var4 var13)) (= var2 var5)))) (inv_main67 var10 var3 var1 var4 var15 var7 var4 var2))))
(assert (forall ((var0 Int) (var1 Heap) (var2 Int) (var3 Addr) (var4 Int) (var5 Int) (var6 Addr) (var7 Int) (var8 Int) (var9 Int) (var10 Int) (var11 Addr) (var12 Addr) (var13 Heap) (var14 Addr) (var15 Addr) (var16 Addr)) (or (not (and (inv_main61 var13 var9 var0 var11 var8 var7 var12 var3) (and (= var15 var6) (and (and (and (and (and (and (and (and (= var1 var13) (= var5 var9)) (= var10 var0)) (= var6 var11)) (= var2 var8)) (= var4 var7)) (= var16 var12)) (= var14 var3)) (= var15 (next (getnode (read var13 var3)))))))) (inv_main62 var1 var5 var10 var6 var2 var4 var16 var14))))
(assert (forall ((var0 Int) (var1 Int) (var2 Int) (var3 Addr) (var4 Int) (var5 Addr) (var6 Heap) (var7 Int) (var8 Int)) (or (not (inv_main52 var6 var2 var1 var3 var0 var8 var4 var5 var7)) (inv_main52 var6 var2 var1 var3 var0 var8 var4 var5 var7))))
(assert (forall ((var0 Int) (var1 Int) (var2 Int) (var3 Int) (var4 Addr) (var5 Addr) (var6 node) (var7 Addr) (var8 Addr) (var9 Int) (var10 Int) (var11 Int) (var12 Heap) (var13 Heap) (var14 Int) (var15 Int) (var16 Addr) (var17 Int) (var18 Int) (var19 Int) (var20 Addr) (var21 Heap) (var22 Int)) (or (not (and (inv_main22 var13 var9 var0 var19 var14 var20 var5) (and (and (= nullAddr var7) (and (and (and (and (and (and (and (= var21 (newHeap (alloc var12 (O_node var6)))) (= var18 var1)) (= var15 var2)) (= var4 var16)) (= var11 3)) (= var3 var2)) (= var22 var2)) (= var7 (newAddr (alloc var12 (O_node var6)))))) (and (and (and (and (and (and (= var12 (write var13 var5 (O_node (node var20 (data (getnode (read var13 var5))))))) (= var1 var9)) (= var2 var0)) (= var10 var19)) (= var17 var14)) (= var16 var20)) (= var8 var5))))) (inv_main52 var21 var18 var15 var4 var11 var3 var22 var7 1))))
(assert (forall ((var0 Int) (var1 Int) (var2 Int) (var3 Addr) (var4 Int) (var5 Addr) (var6 Int) (var7 Int) (var8 Int) (var9 Int) (var10 Int) (var11 Heap) (var12 Heap) (var13 Int) (var14 Int) (var15 Addr) (var16 Addr) (var17 Int) (var18 Addr) (var19 node) (var20 Int) (var21 Addr) (var22 Heap)) (or (not (and (inv_main22 var12 var7 var0 var20 var13 var21 var3) (and (and (not (= nullAddr var18)) (and (and (and (and (and (and (and (= var22 (newHeap (alloc var11 (O_node var19)))) (= var10 var1)) (= var14 var2)) (= var16 var15)) (= var6 3)) (= var4 var2)) (= var8 var2)) (= var18 (newAddr (alloc var11 (O_node var19)))))) (and (and (and (and (and (and (= var11 (write var12 var3 (O_node (node var21 (data (getnode (read var12 var3))))))) (= var1 var7)) (= var2 var0)) (= var9 var20)) (= var17 var13)) (= var15 var21)) (= var5 var3))))) (inv_main49 var22 var10 var14 var16 var6 var4 var8 var18))))
(assert (forall ((var0 Int) (var1 Int) (var2 Int) (var3 Int) (var4 Addr) (var5 Addr) (var6 Heap) (var7 Int) (var8 Int) (var9 Int) (var10 Int) (var11 Addr) (var12 Addr) (var13 Heap) (var14 Int) (var15 Int)) (or (not (and (inv_main55 var13 var9 var1 var11 var8 var7 var3 var4) (and (= nullAddr var12) (and (and (and (and (and (and (and (= var6 (write var13 var4 (O_node (node (next (getnode (read var13 var4))) var3)))) (= var0 var9)) (= var2 var1)) (= var12 var11)) (= var14 var8)) (= var15 var7)) (= var10 var3)) (= var5 var4))))) (inv_main60 var6 var0 var2 var5 var14 var15 var5))))
(assert (forall ((var0 Int) (var1 Int) (var2 Int) (var3 Addr) (var4 Int) (var5 Addr) (var6 Heap) (var7 Int)) (or (not (inv_main49 var6 var2 var1 var3 var0 var7 var4 var5)) (inv_main55 (write var6 var5 (O_node (node nullAddr (data (getnode (read var6 var5)))))) var2 var1 var3 var0 var7 var4 var5))))
(assert (forall ((var0 Heap) (var1 Int) (var2 Addr) (var3 Int) (var4 Addr) (var5 Addr) (var6 Int) (var7 Addr) (var8 Heap) (var9 Int) (var10 Int) (var11 Int) (var12 Addr)) (or (not (and (inv_main72 var8 var3 var1 var5 var7 var9) (and (not (= var12 var4)) (and (and (and (and (and (and (= var0 var8) (= var6 var3)) (= var11 var1)) (= var4 var5)) (= var2 var7)) (= var10 var9)) (= var12 (next (getnode (read var8 var7)))))))) (inv_main69 var0 var6 var11 var4 var12 (+ var10 1)))))
(assert (forall ((var0 Int) (var1 Int) (var2 Int) (var3 Addr) (var4 Addr) (var5 Addr) (var6 Heap) (var7 Int) (var8 Int) (var9 Int) (var10 Int) (var11 Heap) (var12 Int)) (or (not (and (inv_main60 var6 var2 var1 var3 var0 var12 var5) (and (and (and (and (and (= var11 (write var6 var5 (O_node (node var5 (data (getnode (read var6 var5))))))) (= var8 var2)) (= var10 var1)) (= var4 var3)) (= var7 var0)) (= var9 var12)))) (inv_main69 var11 var8 var10 var4 var4 0))))
(assert (forall ((var0 Int) (var1 Int) (var2 Addr) (var3 Int) (var4 Int) (var5 Addr) (var6 Int) (var7 Heap) (var8 Int) (var9 Int) (var10 Int) (var11 Addr) (var12 Addr) (var13 Heap)) (or (not (and (inv_main67 var13 var10 var0 var11 var9 var8 var12 var5) (and (and (and (and (and (= var7 (write var13 var5 (O_node (node var12 (data (getnode (read var13 var5))))))) (= var3 var10)) (= var6 var0)) (= var2 var11)) (= var4 var9)) (= var1 var8)))) (inv_main69 var7 var3 var6 var2 var2 0))))
(assert (forall ((var0 Int) (var1 Int) (var2 Addr) (var3 Int) (var4 Addr) (var5 Addr) (var6 Addr) (var7 Addr) (var8 Int) (var9 Int) (var10 Heap) (var11 Int) (var12 Heap) (var13 Int) (var14 Int) (var15 Addr)) (or (not (and (inv_main36 var10 var8 var1 var14 var11 var15 var6 var5) (and (and (and (and (and (and (and (= var12 (write var10 var5 (O_node (node var15 (data (getnode (read var10 var5))))))) (= var13 var8)) (= var9 var1)) (= var0 var14)) (= var3 var11)) (= var4 var15)) (= var2 var6)) (= var7 var5)))) (inv_main21 var12 var13 var9 (+ var0 (- 1)) var3 var7 var2))))
(assert (forall ((var0 Int) (var1 Heap) (var2 Int) (var3 Int) (var4 Addr) (var5 Addr) (var6 Int) (var7 Int) (var8 Heap) (var9 Int) (var10 Int) (var11 Int) (var12 Int) (var13 Int)) (or (not (and (inv_main18 var8 var7 var0 var12 var9 var6 var4) (and (and (and (and (and (and (= var1 (write var8 var4 (O_node (node (next (getnode (read var8 var4))) var6)))) (= var13 var7)) (= var2 var0)) (= var3 var12)) (= var10 var9)) (= var11 var6)) (= var5 var4)))) (inv_main21 var1 var13 var2 var3 var10 var5 var5))))
(assert (forall ((var0 Int) (var1 Int) (var2 Addr) (var3 Int) (var4 Int) (var5 Addr) (var6 Addr) (var7 Addr) (var8 Heap) (var9 Int) (var10 Addr) (var11 Addr) (var12 Heap) (var13 Int) (var14 Addr)) (or (not (and (inv_main84 var12 var9 var1 var10 var11 var4 var2) (and (not (= var14 var7)) (and (and (and (and (and (and (and (= var8 var12) (= var0 var9)) (= var3 var1)) (= var6 var10)) (= var5 var11)) (= var13 var4)) (= var7 var2)) (= var14 (next (getnode (read var12 var2)))))))) (inv_main88 var8 var0 var3 var6 var5 var13 var7 var14))))
(assert (forall ((var0 Heap) (var1 Int) (var2 Addr) (var3 Addr) (var4 Int) (var5 Int) (var6 Heap) (var7 Addr) (var8 Int) (var9 Addr) (var10 Int) (var11 Addr) (var12 Addr) (var13 Addr) (var14 Addr) (var15 Addr) (var16 Heap) (var17 Int) (var18 Int) (var19 Addr) (var20 Addr) (var21 Int) (var22 Int) (var23 Addr) (var24 Addr) (var25 Addr)) (or (not (and (inv_main88 var16 var10 var1 var11 var13 var4 var2 var23) (and (not (= var3 var25)) (and (and (and (and (and (and (and (and (and (= var0 var16) (= var5 var10)) (= var17 var1)) (= var15 var11)) (= var19 var13)) (= var18 var4)) (= var14 var2)) (= var24 var23)) (= var7 (next (getnode (read var16 var23))))) (and (and (and (and (and (and (and (and (= var6 (write var0 var24 defObj)) (= var8 var5)) (= var22 var17)) (= var12 var15)) (= var9 var19)) (= var21 var18)) (= var25 var14)) (= var20 var24)) (= var3 var7)))))) (inv_main88 var6 var8 var22 var12 var9 var21 var25 var3))))
(assert (forall ((var0 Int) (var1 Addr) (var2 Int) (var3 node) (var4 Addr) (var5 Addr) (var6 Int) (var7 Int) (var8 Addr) (var9 Int) (var10 Heap) (var11 Int) (var12 Int) (var13 Heap) (var14 Int) (var15 Addr) (var16 Int)) (or (not (and (inv_main21 var10 var6 var0 var14 var11 var15 var4) (and (and (not (= nullAddr var1)) (and (and (and (and (and (and (and (and (= var13 (newHeap (alloc var10 (O_node var3)))) (= var12 var6)) (= var2 var0)) (= var9 var14)) (= var7 var11)) (= var5 var15)) (= var8 var4)) (= var16 var11)) (= var1 (newAddr (alloc var10 (O_node var3)))))) (<= 0 (+ (+ var14 (- 1)) (- 1)))))) (inv_main28 var13 var12 var2 var9 var7 var5 var8 var16 var1))))
(assert (forall ((var0 Int) (var1 Int) (var2 Heap) (var3 Int) (var4 Int) (var5 Addr) (var6 Addr) (var7 Int) (var8 Addr)) (or (not (inv_main28 var2 var1 var0 var7 var3 var8 var5 var4 var6)) (inv_main34 (write var2 var6 (O_node (node nullAddr (data (getnode (read var2 var6)))))) var1 var0 var7 var3 var8 var5 var4 var6))))
(assert (forall ((var0 Int) (var1 Int) (var2 Heap) (var3 Int) (var4 Addr) (var5 Int) (var6 Int) (var7 Int)) (or (not (inv_main15 var2 var1 var0 var5 var3 var7 var4 var6)) (inv_main15 var2 var1 var0 var5 var3 var7 var4 var6))))
(assert (forall ((var0 Int) (var1 Addr) (var2 Int) (var3 Int) (var4 Heap) (var5 Int) (var6 Int) (var7 node) (var8 Int) (var9 Heap) (var10 Int)) (or (not (and (inv_main4 var4 var3 var0) (and (= nullAddr var1) (and (and (and (and (and (and (= var9 (newHeap (alloc var4 (O_node var7)))) (= var2 var3)) (= var8 var0)) (= var6 var3)) (= var5 var0)) (= var10 var0)) (= var1 (newAddr (alloc var4 (O_node var7)))))))) (inv_main15 var9 var2 var8 var6 var5 var10 var1 1))))
(assert (forall ((var0 Int) (var1 Int) (var2 Addr) (var3 Addr) (var4 Heap) (var5 Int)) (or (not (and (inv_main69 var4 var1 var0 var2 var3 var5) (not (= var0 (data (getnode (read var4 var3))))))) (inv_main91 var4 var1 var0 var2 var3 var5))))
(assert (forall ((var0 Heap) (var1 Int) (var2 Addr) (var3 Int) (var4 Addr) (var5 Addr) (var6 Int) (var7 Addr) (var8 Heap) (var9 Int) (var10 Int) (var11 Int) (var12 Addr)) (or (not (and (inv_main72 var8 var3 var1 var5 var7 var9) (and (not (= (+ var11 1) (+ 1 var6))) (and (= var12 var4) (and (and (and (and (and (and (= var0 var8) (= var6 var3)) (= var10 var1)) (= var4 var5)) (= var2 var7)) (= var11 var9)) (= var12 (next (getnode (read var8 var7))))))))) (inv_main91 var0 var6 var10 var4 var12 (+ var11 1)))))
(assert (forall ((var0 Heap) (var1 Int) (var2 Addr) (var3 Int) (var4 Addr) (var5 Addr) (var6 Int) (var7 Addr) (var8 Heap) (var9 Int) (var10 Int) (var11 Int) (var12 Addr)) (or (not (and (inv_main72 var8 var3 var1 var5 var7 var9) (and (not (= nullAddr var4)) (and (= (+ var11 1) (+ 1 var6)) (and (= var12 var4) (and (and (and (and (and (and (= var0 var8) (= var6 var3)) (= var10 var1)) (= var4 var5)) (= var2 var7)) (= var11 var9)) (= var12 (next (getnode (read var8 var7)))))))))) (inv_main84 var0 var6 var10 var4 var12 (+ var11 1) var4))))
(assert (forall ((var0 Int) (var1 Int) (var2 Int) (var3 Addr) (var4 Addr) (var5 Addr) (var6 Int) (var7 Int) (var8 Int) (var9 Heap) (var10 Int) (var11 Addr) (var12 Addr) (var13 Heap) (var14 Int) (var15 Addr) (var16 Addr)) (or (not (and (inv_main61 var13 var10 var1 var11 var7 var6 var12 var3) (and (not (= var4 var15)) (and (and (and (and (and (and (and (and (= var9 var13) (= var8 var10)) (= var2 var1)) (= var15 var11)) (= var14 var7)) (= var0 var6)) (= var16 var12)) (= var5 var3)) (= var4 (next (getnode (read var13 var3)))))))) (inv_main63 var9 var8 var2 var15 var14 var0 var16 var5))))
(assert (forall ((var0 Int) (var1 Int) (var2 Heap) (var3 Int) (var4 Addr) (var5 Int) (var6 Int)) (not (and (inv_main12 var2 var1 var0 var5 var3 var6 var4) (not (is-O_node (read var2 var4)))))))
(assert (forall ((var0 Int) (var1 Int) (var2 Heap) (var3 Int) (var4 Addr) (var5 Int) (var6 Int)) (not (and (inv_main18 var2 var1 var0 var5 var3 var6 var4) (not (is-O_node (read var2 var4)))))))
(assert (forall ((var0 Int) (var1 Int) (var2 Heap) (var3 Int) (var4 Int) (var5 Addr) (var6 Addr) (var7 Int) (var8 Addr)) (not (and (inv_main28 var2 var1 var0 var7 var3 var8 var5 var4 var6) (not (is-O_node (read var2 var6)))))))
(assert (forall ((var0 Int) (var1 Int) (var2 Heap) (var3 Int) (var4 Int) (var5 Addr) (var6 Addr) (var7 Int) (var8 Addr)) (not (and (inv_main34 var2 var1 var0 var7 var3 var8 var5 var4 var6) (not (is-O_node (read var2 var6)))))))
(assert (forall ((var0 Int) (var1 Int) (var2 Heap) (var3 Int) (var4 Addr) (var5 Addr) (var6 Int) (var7 Addr)) (not (and (inv_main36 var2 var1 var0 var6 var3 var7 var5 var4) (not (is-O_node (read var2 var4)))))))
(assert (forall ((var0 Int) (var1 Int) (var2 Heap) (var3 Int) (var4 Addr) (var5 Int) (var6 Addr)) (not (and (inv_main22 var2 var1 var0 var5 var3 var6 var4) (not (is-O_node (read var2 var4)))))))
(assert (forall ((var0 Int) (var1 Int) (var2 Int) (var3 Addr) (var4 Int) (var5 Addr) (var6 Heap) (var7 Int)) (not (and (inv_main49 var6 var2 var1 var3 var0 var7 var4 var5) (not (is-O_node (read var6 var5)))))))
(assert (forall ((var0 Int) (var1 Int) (var2 Int) (var3 Addr) (var4 Int) (var5 Addr) (var6 Heap) (var7 Int)) (not (and (inv_main55 var6 var2 var1 var3 var0 var7 var4 var5) (not (is-O_node (read var6 var5)))))))
(assert (forall ((var0 Int) (var1 Int) (var2 Int) (var3 Addr) (var4 Addr) (var5 Heap) (var6 Int)) (not (and (inv_main60 var5 var2 var1 var3 var0 var6 var4) (not (is-O_node (read var5 var4)))))))
(assert (forall ((var0 Int) (var1 Int) (var2 Int) (var3 Addr) (var4 Addr) (var5 Heap) (var6 Addr) (var7 Int)) (not (and (inv_main61 var5 var2 var1 var3 var0 var7 var4 var6) (not (is-O_node (read var5 var6)))))))
(assert (forall ((var0 Int) (var1 Int) (var2 Int) (var3 Addr) (var4 Addr) (var5 Heap) (var6 Addr) (var7 Int)) (not (and (inv_main63 var5 var2 var1 var3 var0 var7 var4 var6) (not (is-O_node (read var5 var6)))))))
(assert (forall ((var0 Int) (var1 Int) (var2 Int) (var3 Addr) (var4 Addr) (var5 Heap) (var6 Addr) (var7 Int)) (not (and (inv_main62 var5 var2 var1 var3 var0 var7 var4 var6) (not (is-O_node (read var5 var4)))))))
(assert (forall ((var0 Int) (var1 Int) (var2 Int) (var3 Addr) (var4 Addr) (var5 Heap) (var6 Addr) (var7 Int)) (not (and (inv_main67 var5 var2 var1 var3 var0 var7 var4 var6) (not (is-O_node (read var5 var6)))))))
(assert (forall ((var0 Int) (var1 Int) (var2 Addr) (var3 Addr) (var4 Heap) (var5 Int)) (not (and (inv_main69 var4 var1 var0 var2 var3 var5) (not (is-O_node (read var4 var3)))))))
(assert (forall ((var0 Int) (var1 Int) (var2 Addr) (var3 Addr) (var4 Heap) (var5 Int)) (not (and (inv_main72 var4 var1 var0 var2 var3 var5) (not (is-O_node (read var4 var3)))))))
(assert (forall ((var0 Int) (var1 Addr) (var2 Int) (var3 Addr) (var4 Addr) (var5 Heap) (var6 Int)) (not (and (inv_main84 var5 var2 var0 var3 var4 var6 var1) (not (is-O_node (read var5 var1)))))))
(assert (forall ((var0 Int) (var1 Addr) (var2 Int) (var3 Addr) (var4 Addr) (var5 Heap) (var6 Int) (var7 Addr)) (not (and (inv_main88 var5 var2 var0 var3 var4 var6 var1 var7) (not (is-O_node (read var5 var7)))))))
(assert (forall ((var0 Int) (var1 Int) (var2 Addr) (var3 Addr) (var4 Heap) (var5 Int)) (not (inv_main91 var4 var1 var0 var2 var3 var5))))
(check-sat)
